Read MPS format model from file dat/rmp/DER_24_16384_20.mps
Reading time = 0.50 seconds
: 16408 rows, 57416 columns, 1297067 nonzeros
Gurobi Optimizer version 9.0.0 build v9.0.0rc2 (linux64)
Optimize a model with 16408 rows, 57416 columns and 1297067 nonzeros
Model fingerprint: 0x25aa9abb
Coefficient statistics:
  Matrix range     [3e-05, 1e+01]
  Objective range  [2e-01, 1e+03]
  Bounds range     [1e+05, 1e+05]
  RHS range        [1e+00, 1e+00]
Ordering time: 0.01s

Barrier statistics:
 AA' NZ     : 3.713e+05
 Factor NZ  : 5.223e+05 (roughly 34 MBytes of memory)
 Factor Ops : 1.814e+07 (less than 1 second per iteration)
 Threads    : 1

                  Objective                Residual
Iter       Primal          Dual         Primal    Dual     Compl     Time
   0   1.04177042e+09 -6.64840633e+07  4.24e+07 8.77e-03  5.20e+05     0s
   1   2.30882409e+07 -1.30334562e+07  8.97e+05 1.82e-12  1.12e+04     0s
   2   1.12614507e+06 -8.25362785e+06  4.32e+04 3.64e-12  6.68e+02     0s
   3   1.32307425e+05 -5.37467131e+06  4.20e+03 1.82e-12  1.33e+02     0s
   4   2.42857622e+04 -6.27162576e+05  4.54e-10 3.64e-12  1.13e+01     1s
   5   2.40132510e+04 -6.06273776e+04  1.50e-10 3.64e-12  1.47e+00     1s
   6   2.39524274e+04  1.61720002e+04  2.25e-10 3.64e-12  1.35e-01     1s
   7   2.35775147e+04  2.11134924e+04  2.64e-10 3.64e-12  4.29e-02     1s
   8   2.34929275e+04  2.26596983e+04  4.23e-10 3.64e-12  1.45e-02     1s
   9   2.34538580e+04  2.28234125e+04  4.02e-10 1.82e-12  1.10e-02     1s
  10   2.33946339e+04  2.28661018e+04  7.15e-10 1.82e-12  9.20e-03     1s
  11   2.33913780e+04  2.30577677e+04  6.49e-10 3.64e-12  5.81e-03     1s
  12   2.33576309e+04  2.31265192e+04  6.59e-10 1.82e-12  4.02e-03     1s
  13   2.33061748e+04  2.31398413e+04  5.22e-10 1.82e-12  2.90e-03     1s
  14   2.32706585e+04  2.31664707e+04  5.59e-10 1.82e-12  1.81e-03     1s
  15   2.32433755e+04  2.31767259e+04  1.03e-09 1.82e-12  1.16e-03     1s
  16   2.32311508e+04  2.31822825e+04  1.44e-09 1.82e-12  8.51e-04     1s
  17   2.32277753e+04  2.31877331e+04  5.62e-10 9.09e-13  6.97e-04     1s
  18   2.32103079e+04  2.31920363e+04  1.84e-09 1.82e-12  3.18e-04     1s
  19   2.32062805e+04  2.31951029e+04  1.81e-09 1.82e-12  1.95e-04     1s
  20   2.32021411e+04  2.31958326e+04  2.06e-09 1.82e-12  1.10e-04     2s
  21   2.31995752e+04  2.31967787e+04  2.82e-09 1.82e-12  4.87e-05     2s
  22   2.31986643e+04  2.31970040e+04  1.87e-09 1.82e-12  2.89e-05     2s
  23   2.31976311e+04  2.31971238e+04  2.99e-09 1.82e-12  8.83e-06     2s
  24   2.31975131e+04  2.31971774e+04  2.71e-09 1.82e-12  5.84e-06     2s
  25   2.31973655e+04  2.31972441e+04  1.36e-09 3.64e-12  2.11e-06     2s
  26   2.31973168e+04  2.31972623e+04  9.80e-10 3.64e-12  9.48e-07     2s
  27   2.31972816e+04  2.31972721e+04  1.27e-08 5.46e-12  1.66e-07     2s
  28   2.31972745e+04  2.31972741e+04  1.21e-07 3.64e-12  6.85e-09     2s
  29   2.31972742e+04  2.31972742e+04  2.29e-07 3.64e-12  1.60e-11     2s

Barrier solved model in 29 iterations and 2.11 seconds
Optimal objective 2.31972742e+04

Solve time: 2.111437022
Barrier iterations: 29
